Minimize
	value: tt

Subject to
tt + 2000 s_1_1 > 0
tt - t_1_1 - 2003.000000 s_1_1 + 3.000000 s_1_6 > -1976.296200
tt + 2000 s_2_1 > 0
tt - t_2_1 - 2003.000000 s_2_1 + 3.000000 s_2_6 > -1959.870100
tt + 2000 s_1_2 > 0
tt - t_1_2 - 2003.000000 s_1_2 + 3.000000 s_1_7 > -1974.525200
tt + 2000 s_2_2 > 0
tt - t_2_2 - 2003.000000 s_2_2 + 3.000000 s_2_7 > -1955.059200
tt + 2000 s_1_3 > 0
tt - t_1_3 - 2003.000000 s_1_3 + 3.000000 s_1_7 > -1963.885600
tt + 2000 s_2_3 > 0
tt - t_2_3 - 2003.000000 s_2_3 + 3.000000 s_2_7 > -1932.855400
tt + 2000 s_1_4 > 0
tt - t_1_4 - 2012.000000 s_1_4 + 12.000000 s_1_3 > -1979.964000
tt + 2000 s_2_4 > 0
tt - t_2_4 - 2012.000000 s_2_4 + 12.000000 s_2_3 > -1964.684600
tt + 2000 s_1_5 > 0
tt - t_1_5 - 2012.000000 s_1_5 + 12.000000 s_1_6 > -1971.535200
tt + 2000 s_2_5 > 0
tt - t_2_5 - 2012.000000 s_2_5 + 12.000000 s_2_6 > -1951.838400
tt + 2000 s_1_6 > 0
tt - t_1_6 - 2000.000000 s_1_6 > -1912.929400
tt + 2000 s_2_6 > 0
tt - t_2_6 - 2000.000000 s_2_6 > -1888.248200
tt + 2000 s_1_7 > 0
tt - t_1_7 - 2000.000000 s_1_7 > -1912.882400
tt + 2000 s_2_7 > 0
tt - t_2_7 - 2000.000000 s_2_7 > -1887.901800
tt + 2000 s_1_8 > 0
tt - t_1_8 - 2075.000000 s_1_8 + 75.000000 s_1_5 > -1997.916600
tt + 2000 s_2_8 > 0
tt - t_2_8 - 2075.000000 s_2_8 + 75.000000 s_2_5 > -1967.575400
s_1_1 + s_2_1  = 1
s_1_2 + s_2_2  = 1
s_1_3 + s_2_3  = 1
s_1_4 + s_2_4  = 1
s_1_5 + s_2_5  = 1
s_1_6 + s_2_6  = 1
s_1_7 + s_2_7  = 1
s_1_8 + s_2_8  = 1
t_1_1 - t_1_2 + 2000.000000 u_1_1_2 - 3.000000 s_1_2 + 3.000000 s_1_7 > 25.474800
t_1_2 - t_1_1 - 2000.000000 u_1_1_2 > -1976.296200
t_2_1 - t_2_2 + 2000.000000 u_2_1_2 - 3.000000 s_2_2 + 3.000000 s_2_7 > 44.940800
t_2_2 - t_2_1 - 2000.000000 u_2_1_2 > -1959.870100
t_1_1 - t_1_3 + 2000.000000 u_1_1_3 - 3.000000 s_1_3 + 3.000000 s_1_7 > 36.114400
t_1_3 - t_1_1 - 2000.000000 u_1_1_3 > -1976.296200
t_2_1 - t_2_3 + 2000.000000 u_2_1_3 - 3.000000 s_2_3 + 3.000000 s_2_7 > 67.144600
t_2_3 - t_2_1 - 2000.000000 u_2_1_3 > -1959.870100
t_1_1 - t_1_4 + 2000.000000 u_1_1_4 - 6.000000 s_1_4 + 6.000000 s_1_3 > 20.036000
t_1_4 - t_1_1 - 2000.000000 u_1_1_4 > -1976.296200
t_2_1 - t_2_4 + 2000.000000 u_2_1_4 - 6.000000 s_2_4 + 6.000000 s_2_3 > 35.315400
t_2_4 - t_2_1 - 2000.000000 u_2_1_4 > -1959.870100
t_1_1 - t_1_5 + 2000.000000 u_1_1_5 - 6.000000 s_1_5 + 6.000000 s_1_6 > 28.464800
t_1_5 - t_1_1 - 2000.000000 u_1_1_5 > -1976.296200
t_2_1 - t_2_5 + 2000.000000 u_2_1_5 - 6.000000 s_2_5 + 6.000000 s_2_6 > 48.161600
t_2_5 - t_2_1 - 2000.000000 u_2_1_5 > -1959.870100
t_1_1 - t_1_6 - 2000.000000 s_1_6 > -1909.929400
t_1_1 - t_2_6 - 2000.000000 s_2_6 > -1885.248200
t_2_1 - t_1_6 - 2000.000000 s_1_6 > -1909.929400
t_2_1 - t_2_6 - 2000.000000 s_2_6 > -1885.248200
t_1_1 - t_1_7 + 2000.000000 u_1_1_7 > 87.117600
t_1_7 - t_1_1 - 2000.000000 u_1_1_7 > -1976.296200
t_2_1 - t_2_7 + 2000.000000 u_2_1_7 > 112.098200
t_2_7 - t_2_1 - 2000.000000 u_2_1_7 > -1959.870100
t_1_8 - t_1_1 - 2000.000000 s_1_1 > -1973.296200
t_1_8 - t_2_1 - 2000.000000 s_2_1 > -1956.870100
t_2_8 - t_1_1 - 2000.000000 s_1_1 > -1973.296200
t_2_8 - t_2_1 - 2000.000000 s_2_1 > -1956.870100
t_1_2 - t_1_1 + 2000.000000 u_1_2_1 - 3.000000 s_1_1 + 3.000000 s_1_6 > 23.703800
t_1_1 - t_1_2 - 2000.000000 u_1_2_1 > -1974.525200
t_2_2 - t_2_1 + 2000.000000 u_2_2_1 - 3.000000 s_2_1 + 3.000000 s_2_6 > 40.129900
t_2_1 - t_2_2 - 2000.000000 u_2_2_1 > -1955.059200
t_1_2 - t_1_3 + 2000.000000 u_1_2_3 - 3.000000 s_1_3 + 3.000000 s_1_7 > 36.114400
t_1_3 - t_1_2 - 2000.000000 u_1_2_3 > -1974.525200
t_2_2 - t_2_3 + 2000.000000 u_2_2_3 - 3.000000 s_2_3 + 3.000000 s_2_7 > 67.144600
t_2_3 - t_2_2 - 2000.000000 u_2_2_3 > -1955.059200
t_1_2 - t_1_4 + 2000.000000 u_1_2_4 - 6.000000 s_1_4 + 6.000000 s_1_3 > 20.036000
t_1_4 - t_1_2 - 2000.000000 u_1_2_4 > -1974.525200
t_2_2 - t_2_4 + 2000.000000 u_2_2_4 - 6.000000 s_2_4 + 6.000000 s_2_3 > 35.315400
t_2_4 - t_2_2 - 2000.000000 u_2_2_4 > -1955.059200
t_1_2 - t_1_5 + 2000.000000 u_1_2_5 - 6.000000 s_1_5 + 6.000000 s_1_6 > 28.464800
t_1_5 - t_1_2 - 2000.000000 u_1_2_5 > -1974.525200
t_2_2 - t_2_5 + 2000.000000 u_2_2_5 - 6.000000 s_2_5 + 6.000000 s_2_6 > 48.161600
t_2_5 - t_2_2 - 2000.000000 u_2_2_5 > -1955.059200
t_1_2 - t_1_6 + 2000.000000 u_1_2_6 > 87.070600
t_1_6 - t_1_2 - 2000.000000 u_1_2_6 > -1974.525200
t_2_2 - t_2_6 + 2000.000000 u_2_2_6 > 111.751800
t_2_6 - t_2_2 - 2000.000000 u_2_2_6 > -1955.059200
t_1_2 - t_1_7 - 2000.000000 s_1_7 > -1909.882400
t_1_2 - t_2_7 - 2000.000000 s_2_7 > -1884.901800
t_2_2 - t_1_7 - 2000.000000 s_1_7 > -1909.882400
t_2_2 - t_2_7 - 2000.000000 s_2_7 > -1884.901800
t_1_8 - t_1_2 - 2000.000000 s_1_2 > -1971.525200
t_1_8 - t_2_2 - 2000.000000 s_2_2 > -1952.059200
t_2_8 - t_1_2 - 2000.000000 s_1_2 > -1971.525200
t_2_8 - t_2_2 - 2000.000000 s_2_2 > -1952.059200
t_1_3 - t_1_1 + 2000.000000 u_1_3_1 - 3.000000 s_1_1 + 3.000000 s_1_6 > 23.703800
t_1_1 - t_1_3 - 2000.000000 u_1_3_1 > -1963.885600
t_2_3 - t_2_1 + 2000.000000 u_2_3_1 - 3.000000 s_2_1 + 3.000000 s_2_6 > 40.129900
t_2_1 - t_2_3 - 2000.000000 u_2_3_1 > -1932.855400
t_1_3 - t_1_2 + 2000.000000 u_1_3_2 - 3.000000 s_1_2 + 3.000000 s_1_7 > 25.474800
t_1_2 - t_1_3 - 2000.000000 u_1_3_2 > -1963.885600
t_2_3 - t_2_2 + 2000.000000 u_2_3_2 - 3.000000 s_2_2 + 3.000000 s_2_7 > 44.940800
t_2_2 - t_2_3 - 2000.000000 u_2_3_2 > -1932.855400
t_1_4 - t_1_3 - 2000.000000 s_1_3 > -1960.885600
t_1_4 - t_2_3 - 2000.000000 s_2_3 > -1929.855400
t_2_4 - t_1_3 - 2000.000000 s_1_3 > -1960.885600
t_2_4 - t_2_3 - 2000.000000 s_2_3 > -1929.855400
t_1_3 - t_1_5 + 2000.000000 u_1_3_5 - 6.000000 s_1_5 + 6.000000 s_1_6 > 28.464800
t_1_5 - t_1_3 - 2000.000000 u_1_3_5 > -1963.885600
t_2_3 - t_2_5 + 2000.000000 u_2_3_5 - 6.000000 s_2_5 + 6.000000 s_2_6 > 48.161600
t_2_5 - t_2_3 - 2000.000000 u_2_3_5 > -1932.855400
t_1_3 - t_1_6 + 2000.000000 u_1_3_6 > 87.070600
t_1_6 - t_1_3 - 2000.000000 u_1_3_6 > -1963.885600
t_2_3 - t_2_6 + 2000.000000 u_2_3_6 > 111.751800
t_2_6 - t_2_3 - 2000.000000 u_2_3_6 > -1932.855400
t_1_3 - t_1_7 - 2000.000000 s_1_7 > -1909.882400
t_1_3 - t_2_7 - 2000.000000 s_2_7 > -1884.901800
t_2_3 - t_1_7 - 2000.000000 s_1_7 > -1909.882400
t_2_3 - t_2_7 - 2000.000000 s_2_7 > -1884.901800
t_1_8 - t_1_3 - 2000.000000 s_1_3 > -1960.885600
t_1_8 - t_2_3 - 2000.000000 s_2_3 > -1929.855400
t_2_8 - t_1_3 - 2000.000000 s_1_3 > -1960.885600
t_2_8 - t_2_3 - 2000.000000 s_2_3 > -1929.855400
t_1_4 - t_1_1 + 2000.000000 u_1_4_1 - 3.000000 s_1_1 + 3.000000 s_1_6 > 23.703800
t_1_1 - t_1_4 - 2000.000000 u_1_4_1 > -1979.964000
t_2_4 - t_2_1 + 2000.000000 u_2_4_1 - 3.000000 s_2_1 + 3.000000 s_2_6 > 40.129900
t_2_1 - t_2_4 - 2000.000000 u_2_4_1 > -1964.684600
t_1_4 - t_1_2 + 2000.000000 u_1_4_2 - 3.000000 s_1_2 + 3.000000 s_1_7 > 25.474800
t_1_2 - t_1_4 - 2000.000000 u_1_4_2 > -1979.964000
t_2_4 - t_2_2 + 2000.000000 u_2_4_2 - 3.000000 s_2_2 + 3.000000 s_2_7 > 44.940800
t_2_2 - t_2_4 - 2000.000000 u_2_4_2 > -1964.684600
t_1_4 - t_1_3 - 2000.000000 s_1_3 > -1960.885600
t_1_4 - t_2_3 - 2000.000000 s_2_3 > -1929.855400
t_2_4 - t_1_3 - 2000.000000 s_1_3 > -1960.885600
t_2_4 - t_2_3 - 2000.000000 s_2_3 > -1929.855400
t_1_4 - t_1_5 + 2000.000000 u_1_4_5 - 6.000000 s_1_5 + 6.000000 s_1_6 > 28.464800
t_1_5 - t_1_4 - 2000.000000 u_1_4_5 > -1979.964000
t_2_4 - t_2_5 + 2000.000000 u_2_4_5 - 6.000000 s_2_5 + 6.000000 s_2_6 > 48.161600
t_2_5 - t_2_4 - 2000.000000 u_2_4_5 > -1964.684600
t_1_4 - t_1_6 + 2000.000000 u_1_4_6 > 87.070600
t_1_6 - t_1_4 - 2000.000000 u_1_4_6 > -1979.964000
t_2_4 - t_2_6 + 2000.000000 u_2_4_6 > 111.751800
t_2_6 - t_2_4 - 2000.000000 u_2_4_6 > -1964.684600
t_1_4 - t_1_7 - 2000.000000 s_1_7 > -1909.882400
t_1_4 - t_2_7 - 2000.000000 s_2_7 > -1884.901800
t_2_4 - t_1_7 - 2000.000000 s_1_7 > -1909.882400
t_2_4 - t_2_7 - 2000.000000 s_2_7 > -1884.901800
t_1_8 - t_1_4 - 2000.000000 s_1_4 > -1973.964000
t_1_8 - t_2_4 - 2000.000000 s_2_4 > -1958.684600
t_2_8 - t_1_4 - 2000.000000 s_1_4 > -1973.964000
t_2_8 - t_2_4 - 2000.000000 s_2_4 > -1958.684600
t_1_5 - t_1_1 + 2000.000000 u_1_5_1 - 3.000000 s_1_1 + 3.000000 s_1_6 > 23.703800
t_1_1 - t_1_5 - 2000.000000 u_1_5_1 > -1971.535200
t_2_5 - t_2_1 + 2000.000000 u_2_5_1 - 3.000000 s_2_1 + 3.000000 s_2_6 > 40.129900
t_2_1 - t_2_5 - 2000.000000 u_2_5_1 > -1951.838400
t_1_5 - t_1_2 + 2000.000000 u_1_5_2 - 3.000000 s_1_2 + 3.000000 s_1_7 > 25.474800
t_1_2 - t_1_5 - 2000.000000 u_1_5_2 > -1971.535200
t_2_5 - t_2_2 + 2000.000000 u_2_5_2 - 3.000000 s_2_2 + 3.000000 s_2_7 > 44.940800
t_2_2 - t_2_5 - 2000.000000 u_2_5_2 > -1951.838400
t_1_5 - t_1_3 + 2000.000000 u_1_5_3 - 3.000000 s_1_3 + 3.000000 s_1_7 > 36.114400
t_1_3 - t_1_5 - 2000.000000 u_1_5_3 > -1971.535200
t_2_5 - t_2_3 + 2000.000000 u_2_5_3 - 3.000000 s_2_3 + 3.000000 s_2_7 > 67.144600
t_2_3 - t_2_5 - 2000.000000 u_2_5_3 > -1951.838400
t_1_5 - t_1_4 + 2000.000000 u_1_5_4 - 6.000000 s_1_4 + 6.000000 s_1_3 > 20.036000
t_1_4 - t_1_5 - 2000.000000 u_1_5_4 > -1971.535200
t_2_5 - t_2_4 + 2000.000000 u_2_5_4 - 6.000000 s_2_4 + 6.000000 s_2_3 > 35.315400
t_2_4 - t_2_5 - 2000.000000 u_2_5_4 > -1951.838400
t_1_5 - t_1_6 - 2000.000000 s_1_6 > -1909.929400
t_1_5 - t_2_6 - 2000.000000 s_2_6 > -1885.248200
t_2_5 - t_1_6 - 2000.000000 s_1_6 > -1909.929400
t_2_5 - t_2_6 - 2000.000000 s_2_6 > -1885.248200
t_1_5 - t_1_7 - 2000.000000 s_1_7 > -1909.882400
t_1_5 - t_2_7 - 2000.000000 s_2_7 > -1884.901800
t_2_5 - t_1_7 - 2000.000000 s_1_7 > -1909.882400
t_2_5 - t_2_7 - 2000.000000 s_2_7 > -1884.901800
t_1_8 - t_1_5 - 2000.000000 s_1_5 > -1965.535200
t_1_8 - t_2_5 - 2000.000000 s_2_5 > -1945.838400
t_2_8 - t_1_5 - 2000.000000 s_1_5 > -1965.535200
t_2_8 - t_2_5 - 2000.000000 s_2_5 > -1945.838400
t_1_1 - t_1_6 - 2000.000000 s_1_6 > -1909.929400
t_1_1 - t_2_6 - 2000.000000 s_2_6 > -1885.248200
t_2_1 - t_1_6 - 2000.000000 s_1_6 > -1909.929400
t_2_1 - t_2_6 - 2000.000000 s_2_6 > -1885.248200
t_1_6 - t_1_2 + 2000.000000 u_1_6_2 - 3.000000 s_1_2 + 3.000000 s_1_7 > 25.474800
t_1_2 - t_1_6 - 2000.000000 u_1_6_2 > -1912.929400
t_2_6 - t_2_2 + 2000.000000 u_2_6_2 - 3.000000 s_2_2 + 3.000000 s_2_7 > 44.940800
t_2_2 - t_2_6 - 2000.000000 u_2_6_2 > -1888.248200
t_1_6 - t_1_3 + 2000.000000 u_1_6_3 - 3.000000 s_1_3 + 3.000000 s_1_7 > 36.114400
t_1_3 - t_1_6 - 2000.000000 u_1_6_3 > -1912.929400
t_2_6 - t_2_3 + 2000.000000 u_2_6_3 - 3.000000 s_2_3 + 3.000000 s_2_7 > 67.144600
t_2_3 - t_2_6 - 2000.000000 u_2_6_3 > -1888.248200
t_1_6 - t_1_4 + 2000.000000 u_1_6_4 - 6.000000 s_1_4 + 6.000000 s_1_3 > 20.036000
t_1_4 - t_1_6 - 2000.000000 u_1_6_4 > -1912.929400
t_2_6 - t_2_4 + 2000.000000 u_2_6_4 - 6.000000 s_2_4 + 6.000000 s_2_3 > 35.315400
t_2_4 - t_2_6 - 2000.000000 u_2_6_4 > -1888.248200
t_1_5 - t_1_6 - 2000.000000 s_1_6 > -1909.929400
t_1_5 - t_2_6 - 2000.000000 s_2_6 > -1885.248200
t_2_5 - t_1_6 - 2000.000000 s_1_6 > -1909.929400
t_2_5 - t_2_6 - 2000.000000 s_2_6 > -1885.248200
t_1_6 - t_1_7 + 2000.000000 u_1_6_7 > 87.117600
t_1_7 - t_1_6 - 2000.000000 u_1_6_7 > -1912.929400
t_2_6 - t_2_7 + 2000.000000 u_2_6_7 > 112.098200
t_2_7 - t_2_6 - 2000.000000 u_2_6_7 > -1888.248200
t_1_7 - t_1_1 + 2000.000000 u_1_7_1 - 3.000000 s_1_1 + 3.000000 s_1_6 > 23.703800
t_1_1 - t_1_7 - 2000.000000 u_1_7_1 > -1912.882400
t_2_7 - t_2_1 + 2000.000000 u_2_7_1 - 3.000000 s_2_1 + 3.000000 s_2_6 > 40.129900
t_2_1 - t_2_7 - 2000.000000 u_2_7_1 > -1887.901800
t_1_2 - t_1_7 - 2000.000000 s_1_7 > -1909.882400
t_1_2 - t_2_7 - 2000.000000 s_2_7 > -1884.901800
t_2_2 - t_1_7 - 2000.000000 s_1_7 > -1909.882400
t_2_2 - t_2_7 - 2000.000000 s_2_7 > -1884.901800
t_1_3 - t_1_7 - 2000.000000 s_1_7 > -1909.882400
t_1_3 - t_2_7 - 2000.000000 s_2_7 > -1884.901800
t_2_3 - t_1_7 - 2000.000000 s_1_7 > -1909.882400
t_2_3 - t_2_7 - 2000.000000 s_2_7 > -1884.901800
t_1_4 - t_1_7 - 2000.000000 s_1_7 > -1909.882400
t_1_4 - t_2_7 - 2000.000000 s_2_7 > -1884.901800
t_2_4 - t_1_7 - 2000.000000 s_1_7 > -1909.882400
t_2_4 - t_2_7 - 2000.000000 s_2_7 > -1884.901800
t_1_5 - t_1_7 - 2000.000000 s_1_7 > -1909.882400
t_1_5 - t_2_7 - 2000.000000 s_2_7 > -1884.901800
t_2_5 - t_1_7 - 2000.000000 s_1_7 > -1909.882400
t_2_5 - t_2_7 - 2000.000000 s_2_7 > -1884.901800
t_1_7 - t_1_6 + 2000.000000 u_1_7_6 > 87.070600
t_1_6 - t_1_7 - 2000.000000 u_1_7_6 > -1912.882400
t_2_7 - t_2_6 + 2000.000000 u_2_7_6 > 111.751800
t_2_6 - t_2_7 - 2000.000000 u_2_7_6 > -1887.901800
t_1_8 - t_1_1 - 2000.000000 s_1_1 > -1973.296200
t_1_8 - t_2_1 - 2000.000000 s_2_1 > -1956.870100
t_2_8 - t_1_1 - 2000.000000 s_1_1 > -1973.296200
t_2_8 - t_2_1 - 2000.000000 s_2_1 > -1956.870100
t_1_8 - t_1_2 - 2000.000000 s_1_2 > -1971.525200
t_1_8 - t_2_2 - 2000.000000 s_2_2 > -1952.059200
t_2_8 - t_1_2 - 2000.000000 s_1_2 > -1971.525200
t_2_8 - t_2_2 - 2000.000000 s_2_2 > -1952.059200
t_1_8 - t_1_3 - 2000.000000 s_1_3 > -1960.885600
t_1_8 - t_2_3 - 2000.000000 s_2_3 > -1929.855400
t_2_8 - t_1_3 - 2000.000000 s_1_3 > -1960.885600
t_2_8 - t_2_3 - 2000.000000 s_2_3 > -1929.855400
t_1_8 - t_1_4 - 2000.000000 s_1_4 > -1973.964000
t_1_8 - t_2_4 - 2000.000000 s_2_4 > -1958.684600
t_2_8 - t_1_4 - 2000.000000 s_1_4 > -1973.964000
t_2_8 - t_2_4 - 2000.000000 s_2_4 > -1958.684600
t_1_8 - t_1_5 - 2000.000000 s_1_5 > -1965.535200
t_1_8 - t_2_5 - 2000.000000 s_2_5 > -1945.838400
t_2_8 - t_1_5 - 2000.000000 s_1_5 > -1965.535200
t_2_8 - t_2_5 - 2000.000000 s_2_5 > -1945.838400
Binary
s_1_1
s_2_1
s_1_2
s_2_2
s_1_3
s_2_3
s_1_4
s_2_4
s_1_5
s_2_5
s_1_6
s_2_6
s_1_7
s_2_7
s_1_8
s_2_8
u_1_1_2
u_2_1_2
u_1_1_3
u_2_1_3
u_1_1_4
u_2_1_4
u_1_1_5
u_2_1_5
u_1_1_7
u_2_1_7
u_1_2_1
u_2_2_1
u_1_2_3
u_2_2_3
u_1_2_4
u_2_2_4
u_1_2_5
u_2_2_5
u_1_2_6
u_2_2_6
u_1_3_1
u_2_3_1
u_1_3_2
u_2_3_2
u_1_3_5
u_2_3_5
u_1_3_6
u_2_3_6
u_1_4_1
u_2_4_1
u_1_4_2
u_2_4_2
u_1_4_5
u_2_4_5
u_1_4_6
u_2_4_6
u_1_5_1
u_2_5_1
u_1_5_2
u_2_5_2
u_1_5_3
u_2_5_3
u_1_5_4
u_2_5_4
u_1_6_2
u_2_6_2
u_1_6_3
u_2_6_3
u_1_6_4
u_2_6_4
u_1_6_7
u_2_6_7
u_1_7_1
u_2_7_1
u_1_7_6
u_2_7_6

End
